(set-logic UFBV)
(declare-const hole_0 Bool)
(assert (forall ((x_0 (_ BitVec 32))
(y_0 (_ BitVec 32)))
(let ((x_1 y_0))
(let ((x_2 x_0))
(let ((x_3 (ite hole_0 x_1 x_2)))
(= x_3 y_0))))))
(check-sat)
(get-model)